# Cost: 601

# Tail Head Net
 40  41 1
 41  42 1
 42  43 1
 43  44 1
 44  45 1
 45  46 1
 46  47 1
 47  48 1
 48  49 1
 49  50 1
 50  51 1
 51  52 1
 52  53 1
 53  54 1
 54  55 1
 55  56 1
 56  57 1
 57  58 1
 58  59 1
 59  60 1
 60 120 1
120 180 1
180 240 1
240 300 1
300 360 1
360 420 1
420 4020 1
480 540 1
4020 4080 1
540 600 1
4080 480 1
600 660 1
660 720 1
720 780 1
780 840 1
840 900 1
900 960 1
960 1020 1
1020 1080 1
1080 1140 1
1140 1200 1
1200 1260 1
1260 1320 1
1320 1380 1
1380 1440 1
1440 1500 1
1500 1560 1
2100 2040 2
2160 2100 2
2220 2160 2
2280 2220 2
2340 2280 2
2400 2340 2
2408 2468 2
2409 2408 2
2410 2409 2
2411 2410 2
2412 2411 2
2413 2412 2
2414 2413 2
2415 2414 2
2416 2415 2
2417 2416 2
2418 2417 2
2419 2418 2
2420 2419 2
2421 2420 2
2422 2421 2
2423 2422 2
2424 2423 2
2425 2424 2
2426 2425 2
2427 2426 2
2428 2427 2
2429 2428 2
2430 2429 2
2431 2430 2
2432 2431 2
2433 2432 2
2434 2433 2
2435 2434 2
2436 2435 2
2437 2436 2
2438 2437 2
2439 2438 2
2440 2439 2
2441 2440 2
2442 2441 2
2443 2442 2
2444 2443 2
2445 2444 2
2446 2445 2
2447 2446 2
2448 2447 2
2449 2448 2
2450 2449 2
2451 2450 2
2452 2451 2
2453 2452 2
2454 2453 2
2455 2454 2
2456 2455 2
2457 2456 2
2458 2457 2
2459 2458 2
2460 2400 2
2460 2459 2
2468 2528 2
2528 2588 2
2588 2648 2
2648 2708 2
2708 2768 2
2768 2828 2
2828 2888 2
2888 2948 2
2948 3008 2
3008 3068 2
3068 3128 2
3128 3188 2
3188 3248 2
3248 3308 2
3308 3368 2
3368 3428 2
3428 3488 2
3488 3548 2
3121 3122 3
3122 3123 3
3123 3124 3
3124 3125 3
3125 3126 3
3126 3186 3
3186 3246 3
3246 6846 3
3259 3260 3
3260 3320 3
6846 6847 3
6847 6848 3
6848 6849 3
6849 6850 3
6850 6851 3
6851 6852 3
6852 6853 3
6853 6854 3
6854 6855 3
6855 6856 3
6856 6857 3
6857 6858 3
6858 6859 3
6859 3259 3
3320 3321 3
3321 3381 3
3381 3382 3
3382 3383 3
3383 3384 3
3384 3385 3
3385 3445 3
3445 3446 3
3446 3506 3
3506 3566 3
3566 3567 3
3567 3568 3
3568 3569 3
3569 3570 3
3542 3541 4
3543 3542 4
3544 3543 4
3545 3544 4
3546 3545 4
3547 3546 4
3571 7171 4
3572 3571 4
3573 3572 4
3574 3573 4
3575 3574 4
3576 3575 4
3577 3576 4
3578 3577 4
3579 3578 4
7147 3547 4
7148 7147 4
7149 7148 4
7150 7149 4
7151 7150 4
7152 7151 4
7153 7152 4
7154 7153 4
7155 7154 4
7156 7155 4
7157 7156 4
7158 7157 4
7159 7158 4
7160 7159 4
7161 7160 4
7162 7161 4
7163 7162 4
7164 7163 4
7165 7164 4
7166 7165 4
7167 7166 4
7168 7167 4
7169 7168 4
7170 7169 4
7171 7170 4
3841 241 5
3901 3841 5
3961 3901 5
4021 3961 5
4081 4021 5
4141 4081 5
4201 4141 5
4261 4201 5
4321 4261 5
4381 4321 5
4441 4381 5
4501 4441 5
4561 4501 5
4621 4561 5
4681 4621 5
4741 4681 5
4801 4741 5
4861 4801 5
4921 4861 5
4981 4921 5
5041 4981 5
5101 5041 5
5161 5101 5
5221 5161 5
5281 5221 5
5341 5281 5
5401 5341 5
5461 5401 5
5521 5461 5
5581 5521 5
5641 5581 5
5701 5641 5
5761 5701 5
5821 5761 5
5881 5821 5
5941 5881 5
6001 5941 5
6061 6001 5
6121 6061 5
6181 6121 5
6241 6181 5
6301 6241 5
6361 6301 5
6421 6361 5
6481 6421 5
6541 6481 5
6601 6541 5
6661 6601 5
6721 6661 5
6781 6721 5
6841 6781 5
6901 6841 5
6961 6901 5
7021 6961 5
3508 7108 5
3509 3508 5
3510 3509 5
3511 3510 5
3512 3511 5
3513 3512 5
3514 3513 5
3515 3514 5
3516 3515 5
3517 3516 5
3518 3517 5
3519 3518 5
3520 3519 5
7081 7021 5
7082 7081 5
7083 7082 5
7084 7083 5
7085 7084 5
7086 7085 5
7087 7086 5
7088 7087 5
7089 7088 5
7090 7089 5
7091 7090 5
7092 7091 5
7093 7092 5
7094 7093 5
7095 7094 5
7096 7095 5
7097 7096 5
7098 7097 5
7099 7098 5
7100 7099 5
7101 7100 5
7102 7101 5
7103 7102 5
7104 7103 5
7105 7104 5
7106 7105 5
7107 7106 5
7108 7107 5
3580 3520 5
3581 3580 5
3582 3581 5
3060 3120 6
3120 3180 6
3180 3240 6
3240 3300 6
3300 3360 6
3360 3420 6
1921 1922 7
1922 1923 7
1923 1924 7
1924 1925 7
1925 1985 7
1985 1986 7
1986 1987 7
1987 1988 7
1988 1989 7
1989 2049 7
2049 2109 7
2109 2110 7
2110 2170 7
2170 2230 7
2230 2290 7
2290 2350 7
2350 5950 7
5950 6010 7
6010 6011 7
6011 6071 7
6071 6131 7
6131 6191 7
6191 6251 7
6251 6311 7
6311 6312 7
6312 6313 7
6313 6314 7
6314 6374 7
6374 6434 7
6434 6435 7
6435 6436 7
6436 6437 7
6437 6497 7
6497 6557 7
3017 3077 7
6557 6617 7
3077 3137 7
6617 3017 7
3137 3138 7
3138 3198 7
3198 3258 7
3258 3318 7
3318 3378 7
3378 3438 7
3438 3498 7
3498 3558 7
1681 1621 8
1741 1681 8
1801 1741 8
1861 1801 8
1862 1861 8
1863 1862 8
1864 1863 8
1865 1864 8
1866 1865 8
1926 1866 8
1927 1926 8
1928 1927 8
1929 1928 8
1930 1929 8
1990 1930 8
2050 1990 8
2051 2050 8
2111 2051 8
2171 2111 8
2231 2171 8
2291 2231 8
2351 2291 8
5951 2351 8
5952 5951 8
6012 5952 8
6072 6012 8
6132 6072 8
6192 6132 8
2660 6260 8
2661 2660 8
2662 2661 8
2663 2662 8
2664 2663 8
2665 2664 8
2666 2665 8
2667 2666 8
2668 2667 8
2669 2668 8
2670 2669 8
2671 2670 8
2672 2671 8
2673 2672 8
2674 2673 8
2675 2674 8
2676 2675 8
2677 2676 8
2678 2677 8
2679 2678 8
2680 2679 8
2681 2680 8
2682 2681 8
2683 2682 8
2684 2683 8
2685 2684 8
2686 2685 8
2687 2686 8
2688 2687 8
2689 2688 8
2690 2689 8
2691 2690 8
2692 2691 8
2693 2692 8
2694 2693 8
2695 2694 8
2696 2695 8
2697 2696 8
2698 2697 8
2699 2698 8
2700 2699 8
6252 6192 8
6253 6252 8
6254 6253 8
6255 6254 8
6256 6255 8
6257 6256 8
6258 6257 8
6259 6258 8
6260 6259 8
1441 1381 9
1501 1441 9
1502 1501 9
1562 1502 9
1563 1562 9
1623 1563 9
1683 1623 9
1684 1683 9
1744 1684 9
1745 1744 9
1805 1745 9
1806 1805 9
1807 1806 9
1867 1807 9
5467 1867 9
5527 5467 9
5587 5527 9
5647 5587 9
5707 5647 9
5708 5707 9
5768 5708 9
5828 5768 9
5829 5828 9
5889 5829 9
5949 5889 9
6009 5949 9
6069 6009 9
6129 6069 9
2590 6190 9
6189 6129 9
2650 2590 9
6190 6189 9
2651 2650 9
2711 2651 9
2771 2711 9
2831 2771 9
2891 2831 9
2892 2891 9
2893 2892 9
2953 2893 9
3013 2953 9
3073 3013 9
3133 3073 9
3193 3133 9
3253 3193 9
3313 3253 9
3373 3313 9
3433 3373 9
3493 3433 9
3553 3493 9
661 601 10
721 661 10
781 721 10
841 781 10
901 841 10
961 901 10
1021 961 10
1081 1021 10
1141 1081 10
1201 1141 10
1261 1201 10
1321 1261 10
1322 1321 10
1382 1322 10
1442 1382 10
5042 1442 10
5102 5042 10
5162 5102 10
5222 5162 10
5282 5222 10
5342 5282 10
5402 5342 10
5403 5402 10
5404 5403 10
5405 5404 10
5406 5405 10
5407 5406 10
5408 5407 10
5468 5408 10
5528 5468 10
5588 5528 10
5648 5588 10
5649 5648 10
5709 5649 10
5769 5709 10
5770 5769 10
5830 5770 10
5890 5830 10
5891 5890 10
5892 5891 10
5893 5892 10
5953 5893 10
2473 6073 10
6013 5953 10
2533 2473 10
6073 6013 10
2534 2533 10
2535 2534 10
2536 2535 10
2537 2536 10
2538 2537 10
2539 2538 10
2540 2539 10
2541 2540 10
2542 2541 10
2543 2542 10
2544 2543 10
2545 2544 10
2546 2545 10
2547 2546 10
2548 2547 10
2549 2548 10
2550 2549 10
2551 2550 10
2552 2551 10
2553 2552 10
2554 2553 10
2555 2554 10
2556 2555 10
2557 2556 10
2558 2557 10
2559 2558 10
2560 2559 10
2561 2560 10
2562 2561 10
2563 2562 10
2564 2563 10
2565 2564 10
2566 2565 10
2567 2566 10
2568 2567 10
2569 2568 10
2570 2569 10
2571 2570 10
2572 2571 10
2573 2572 10
2574 2573 10
2575 2574 10
2576 2575 10
2577 2576 10
2578 2577 10
2579 2578 10
2580 2579 10
  2  62 11
 61 121 11
  3   2 11
 62  61 11
  4   3 11
  5   4 11
  6   5 11
  7   6 11
  8   7 11
  9   8 11
 10   9 11
 11  10 11
 12  11 11
 13  12 11
 14  13 11
 15  14 11
 16  15 11
 17  16 11
 18  17 11
 19  18 11
 20  19 11
 21  20 11
 22  21 11
 23  22 11
 24  23 11
 25  24 11
 26  25 11
